15967
1 0 1 0 0 1 0 1 0 0 0 1 0 1 1 0 0 1 0 0 1 0 0 0 1 1 0 0 0 0 
20 11 13 14 20 5 2 24 14 17 24 20 20 20 7 14 14 17 5 11 2 0 5 17 5 20 2 24 5 24 5 25 13 25 20 20 24 24 0 14 0 14 24 14 24 14 0 13 11 14 5 14 14 5 20 20 17 11 0 14 0 5 20 11 11 11 24 0 5 24 20 20 11 0 24 20 24 20 14 24 20 7 13 17 2 17 17 7 20 5 2 24 17 11 7 5 2 14 25 20 20 17 17 25 2 25 7 11 14 14 14 14 2 11 11 25 24 24 24 24 5 20 25 13 20 0 5 24 0 25 0 11 24 5 20 14 7 5 20 17 0 20 20 14 20 25 25 5 2 5 
